20256
1 0 0 0 0 0 0 0 1 0 0 1 1 0 1 0 1 1 0 1 0 0 1 0 1 0 1 1 1 0 
8 11 8 14 16 11 19 24 14 17 22 16 8 8 17 14 14 17 11 11 14 0 22 17 22 8 19 24 24 24 27 11 16 11 8 8 24 24 0 14 0 14 24 8 24 14 0 8 27 8 27 14 14 11 8 8 17 11 0 14 0 24 8 11 11 11 22 0 22 22 8 8 11 17 24 8 26 8 14 24 8 0 8 17 17 17 17 0 8 11 14 24 0 11 0 24 14 19 27 16 8 0 14 11 19 11 0 11 14 28 14 14 0 11 11 27 24 24 24 24 11 8 11 8 16 0 11 24 0 12 0 11 24 22 8 14 0 11 8 0 0 8 8 14 8 27 11 11 0 24 
